data/solutions/recovery/wellformed/moderate/flexible/wellformed_moderate_instance11/50.sol
Elapsed time: 0.1
Upper bound: 11159.0
Planning weighted value: 75228.0
C[0]=11159.0
C[1]=11159.0
C[2]=11154.0
y[0]=2
y[1]=1
y[2]=2
y[3]=0
y[4]=0
y[5]=2
y[6]=2
y[7]=1
y[8]=2
y[9]=0
y[10]=0
y[11]=2
y[12]=1
y[13]=2
y[14]=0
y[15]=0
y[16]=1
y[17]=0
y[18]=1
y[19]=0
y[20]=0
y[21]=0
y[22]=1
y[23]=1
y[24]=0
y[25]=1
y[26]=1
y[27]=2
y[28]=0
y[29]=0
y[30]=2
y[31]=2
y[32]=0
